(declare-const x0 Bool)
(declare-const x1 Bool)
(declare-const x2 Bool)
(declare-const x3 Bool)
(declare-const x4 Bool)
(declare-const x5 Bool)
(declare-const x6 Bool)
(declare-const x7 Bool)
(declare-const x8 Bool)
(declare-const x9 Bool)
(declare-const x10 Bool)
(declare-const x11 Bool)
(declare-const x12 Bool)
(declare-const x13 Bool)
(declare-const x14 Bool)
(declare-const x15 Bool)
(declare-const x16 Bool)
(assert (or (= x13 true) (and (and x16 x8) (or (and (or false false) (= true x10)) (and x11 x9)))))
(assert (and (and false x11) (= true true)))
(assert (and (= false x11) (= (or false true) x7)))
(assert (= (= false false) (or true x2)))
(assert (= true (or x15 x4)))
(assert (= (and (or (and false (or x6 x1)) (or true x14)) (and true (and false x4))) (and (= x11 true) false)))
(assert (= (= (and x0 x1) (and true true)) (and (and (or true true) x10) (and true x16))))
(assert (or x9 true))
(assert (= (and (= true (= true x3)) (and x11 false)) (= (= x6 false) (or false x2))))
(assert (and x8 (or x16 true)))
(check-sat)
